[runlim] version:		2.0.0rc12
[runlim] host:			ap-Precision-7550
[runlim] time limit:		311040000 seconds
[runlim] real time limit:	600 seconds
[runlim] space limit:		14000 MB
[runlim] argv[0]:		python3
[runlim] argv[1]:		cp.py
[runlim] argv[2]:		scen01
[runlim] start:			Thu Mar 26 03:19:43 2026
[runlim] child:			31514
--- Building model for 916 variables ---
--- Solving with CP Optimizer (Integer Mode) ---
 ! --------------------------------------------------- CP Optimizer 22.1.1.0 --
 ! Minimization problem - 916 variables, 5548 constraints
 ! LogVerbosity         = Terse
 ! Initial process time : 0.05s (0.05s extraction + 0.00s propagation)
 !  . Log search space  : 4834.9 (before), 4834.9 (after)
 !  . Memory usage      : 2.9 MB (before), 2.9 MB (after)
 ! Using parallel search with 12 workers.
 ! ----------------------------------------------------------------------------
 !          Best Branches  Non-fixed    W       Branch decision
                        0        916                 -
 + New bound is 0
                        0        916                 -
 + New bound is 1
                        2        916    1   F   142 != node_840
 + New bound is 2
 *            38      498  0.20s        1      (gap is 94.74%)
 *            34      494  0.20s        4      (gap is 94.12%)
 *            32      486  0.20s       11      (gap is 93.75%)
 *            30     2651  0.44s        8      (gap is 93.33%)
 *            28     4142  0.67s       10      (gap is 92.86%)
 *            26     6688  0.86s        5      (gap is 92.31%)
 *            24     8232  1.04s        5      (gap is 91.67%)
 *            22    12334  1.38s        8      (gap is 90.91%)
 *            20    15058  1.65s       10      (gap is 90.00%)
 *            18    23486  2.40s       11      (gap is 88.89%)
 *            16    35199  6.32s        4      (gap is 87.50%)
[runlim] sample:		62.58 time, 10.01 real, 292 MB, 7.81 load
[runlim] sample:		146.72 time, 20.01 real, 313 MB, 7.50 load
              16     192k        812    7   F   408 != node_251
 + New bound is 3 (gap is 81.25%)
              16     203k        798    9   F   240 != node_251
 + New bound is 4 (gap is 75.00%)
              16     203k        798    9   F   380 != node_251
 + New bound is 5 (gap is 68.75%)
[runlim] sample:		227.17 time, 30.01 real, 321 MB, 8.20 load
[runlim] sample:		313.00 time, 40.02 real, 325 MB, 7.97 load
[runlim] sample:		392.48 time, 50.01 real, 328 MB, 7.85 load
[runlim] sample:		471.46 time, 60.02 real, 329 MB, 6.87 load
[runlim] sample:		547.53 time, 70.02 real, 331 MB, 6.99 load
[runlim] sample:		632.87 time, 80.01 real, 334 MB, 6.79 load
[runlim] sample:		715.38 time, 90.01 real, 335 MB, 7.12 load
[runlim] sample:		800.85 time, 100.01 real, 337 MB, 7.01 load
[runlim] sample:		877.54 time, 110.01 real, 338 MB, 6.82 load
[runlim] sample:		957.34 time, 120.01 real, 339 MB, 6.81 load
[runlim] sample:		1040.00 time, 130.02 real, 340 MB, 5.92 load
[runlim] sample:		1123.77 time, 140.01 real, 342 MB, 5.88 load
[runlim] sample:		1202.97 time, 150.02 real, 342 MB, 5.76 load
[runlim] sample:		1287.54 time, 160.01 real, 343 MB, 6.42 load
[runlim] sample:		1366.25 time, 170.01 real, 344 MB, 6.56 load
[runlim] sample:		1448.38 time, 180.01 real, 345 MB, 7.40 load
[runlim] sample:		1526.82 time, 190.01 real, 345 MB, 7.66 load
[runlim] sample:		1611.82 time, 200.01 real, 346 MB, 7.88 load
[runlim] sample:		1689.91 time, 210.01 real, 347 MB, 7.79 load
[runlim] sample:		1769.30 time, 220.02 real, 347 MB, 7.99 load
[runlim] sample:		1853.83 time, 230.01 real, 348 MB, 8.61 load
[runlim] sample:		1939.09 time, 240.01 real, 349 MB, 8.65 load
[runlim] sample:		2019.57 time, 250.01 real, 349 MB, 8.85 load
[runlim] sample:		2102.57 time, 260.01 real, 350 MB, 9.32 load
[runlim] sample:		2189.83 time, 270.01 real, 350 MB, 9.58 load
[runlim] sample:		2278.07 time, 280.02 real, 350 MB, 9.65 load
[runlim] sample:		2362.67 time, 290.02 real, 351 MB, 10.01 load
[runlim] sample:		2435.16 time, 300.02 real, 351 MB, 10.48 load
[runlim] sample:		2514.89 time, 310.02 real, 351 MB, 9.74 load
[runlim] sample:		2596.55 time, 320.01 real, 352 MB, 10.09 load
[runlim] sample:		2678.30 time, 330.01 real, 352 MB, 9.65 load
[runlim] sample:		2754.91 time, 340.01 real, 352 MB, 8.69 load
[runlim] sample:		2835.36 time, 350.01 real, 353 MB, 9.20 load
[runlim] sample:		2918.99 time, 360.01 real, 353 MB, 9.53 load
[runlim] sample:		3006.04 time, 370.02 real, 353 MB, 9.18 load
[runlim] sample:		3086.83 time, 380.01 real, 354 MB, 9.69 load
[runlim] sample:		3162.01 time, 390.01 real, 354 MB, 9.65 load
[runlim] sample:		3248.40 time, 400.01 real, 355 MB, 9.93 load
[runlim] sample:		3334.57 time, 410.01 real, 355 MB, 10.17 load
[runlim] sample:		3422.60 time, 420.01 real, 355 MB, 9.71 load
[runlim] sample:		3506.12 time, 430.02 real, 355 MB, 8.37 load
[runlim] sample:		3588.15 time, 440.02 real, 356 MB, 8.20 load
[runlim] sample:		3672.05 time, 450.01 real, 356 MB, 8.79 load
[runlim] sample:		3752.31 time, 460.02 real, 357 MB, 8.61 load
[runlim] sample:		3830.76 time, 470.01 real, 357 MB, 8.33 load
[runlim] sample:		3921.79 time, 480.01 real, 357 MB, 8.90 load
[runlim] sample:		4012.11 time, 490.02 real, 357 MB, 8.71 load
[runlim] sample:		4090.08 time, 500.02 real, 357 MB, 8.82 load
[runlim] sample:		4176.29 time, 510.02 real, 358 MB, 9.15 load
[runlim] sample:		4260.68 time, 520.01 real, 358 MB, 9.07 load
[runlim] sample:		4340.76 time, 530.01 real, 358 MB, 8.39 load
[runlim] sample:		4427.25 time, 540.01 real, 359 MB, 8.95 load
[runlim] sample:		4511.79 time, 550.02 real, 360 MB, 8.61 load
[runlim] sample:		4601.96 time, 560.01 real, 360 MB, 8.46 load
[runlim] sample:		4679.33 time, 570.01 real, 360 MB, 7.31 load
[runlim] sample:		4766.09 time, 580.01 real, 362 MB, 7.95 load
[runlim] sample:		4844.72 time, 590.01 real, 363 MB, 8.58 load
[runlim] sample:		4926.68 time, 600.01 real, 364 MB, 8.00 load
[runlim] end:			Thu Mar 26 03:29:44 2026
[runlim] status:		out of time
[runlim] result:		2
[runlim] children:		2
[runlim] processes:		3
[runlim] real:			601.06 seconds
[runlim] time:			4926.68 seconds
[runlim] space:			364 MB
[runlim] load:			10.48 maximum
[runlim] samples:		6000
